\ENCODING=ISO-8859-1
\Problem name: FEASIBLELP

Maximize
 obj: x11
Subject To
 UTILITY_TF_13#0: - 3.99999332427979 n_k31_o13 - 3.99999332427979 n_k32_o13
                  - 3.99999332427979 n_k33_o13
                  + 0.00000667572021484375 n_k34_o13
                  + 0.00000667572021484375 n_k35_o13 <= 0
 UTILITY_TF_14#1: - 3.99999332427979 n_k31_o14 - 3.99999332427979 n_k32_o14
                  - 3.99999332427979 n_k33_o14
                  + 0.00000667572021484375 n_k34_o14
                  + 0.00000667572021484375 n_k35_o14 <= 0
 _EQ_K31#2:       n_k31_o13 + n_k31_o14  = 1
 _EQ_K32#3:       n_k32_o13 + n_k32_o14  = 1
 _EQ_K33#4:       n_k33_o13 + n_k33_o14  = 1
 _EQ_K34#5:       n_k34_o13 + n_k34_o14  = 1
 _EQ_K35#6:       n_k35_o13 + n_k35_o14  = 1
 ZERO_K31_O14#7:  n_k31_o14  = 0
 ZERO_K32_O14#8:  n_k32_o14  = 0
 ZERO_K33_O14#9:  n_k33_o14  = 0
 ZERO_K34_O13#10: n_k34_o13  = 0
 ZERO_K35_O13#11: n_k35_o13  = 0
Bounds
 0 <= n_k31_o13 <= 1
 0 <= n_k31_o14 <= 1
 0 <= n_k32_o13 <= 1
 0 <= n_k32_o14 <= 1
 0 <= n_k33_o13 <= 1
 0 <= n_k33_o14 <= 1
 0 <= n_k34_o13 <= 1
 0 <= n_k34_o14 <= 1
 0 <= n_k35_o13 <= 1
 0 <= n_k35_o14 <= 1
      x11 = 1
End
